Solver command line: ['C:\\Program Files\\IBM\\ILOG\\CPLEX_Studio2211\\cplex\\bin\\x64_win64\\cplex.exe']


Welcome to IBM(R) ILOG(R) CPLEX(R) Interactive Optimizer 22.1.1.0
  with Simplex, Mixed Integer & Barrier Optimizers
5725-A06 5725-A29 5724-Y48 5724-Y49 5724-Y54 5724-Y55 5655-Y21
Copyright IBM Corp. 1988, 2022.  All Rights Reserved.

Type 'help' for a list of available commands.
Type 'help' followed by a command name for more
information on commands.

CPLEX> Logfile 'cplex.log' closed.
Logfile 'C:\Users\wangy\Documents\GitHub\re_optimization\result_site_specific\tmpvzxm0_ps.cplex.log' open.
CPLEX> Problem 'C:\Users\wangy\Documents\GitHub\re_optimization\result_site_specific\tmp8uqva24n.pyomo.lp' read.
Read time = 0.26 sec. (7.98 ticks)
CPLEX> Problem name         : C:\Users\wangy\Documents\GitHub\re_optimization\result_site_specific\tmp8uqva24n.pyomo.lp
Objective sense      : Minimize
Variables            :   56997  [Nneg: 30685,  Free: 4406,  Binary: 6,
                                 Other: 21900]
Objective nonzeros   :      14
Linear constraints   :   78893  [Less: 42355,  Greater: 5,  Equal: 36533]
  Nonzeros           :  198771
  RHS nonzeros       :    3658

Variables            : Min LB: 0.000000         Max UB: 1.000000       
Objective nonzeros   : Min   : 1.000000         Max   : 1.000000       
Linear constraints   :
  Nonzeros           : Min   : 0.001910200      Max   : 100000.0       
  RHS nonzeros       : Min   : 0.03400000       Max   : 100000.0       
CPLEX> Version identifier: 22.1.1.0 | 2022-11-27 | 9160aff4d
Tried aggregator 3 times.
MIP Presolve eliminated 46202 rows and 25759 columns.
Aggregator did 10785 substitutions.
Reduced MIP has 21906 rows, 20453 columns, and 65903 nonzeros.
Reduced MIP has 2 binaries, 0 generals, 0 SOSs, and 0 indicators.
Presolve time = 0.20 sec. (208.13 ticks)
Found incumbent of value 229650.990543 after 0.28 sec. (300.72 ticks)
Probing time = 0.02 sec. (1.14 ticks)
Tried aggregator 1 time.
Detecting symmetries...
Reduced MIP has 21906 rows, 20453 columns, and 65903 nonzeros.
Reduced MIP has 2 binaries, 0 generals, 0 SOSs, and 0 indicators.
Presolve time = 0.03 sec. (42.54 ticks)
Probing time = 0.00 sec. (1.07 ticks)
MIP emphasis: balance optimality and feasibility.
MIP search method: dynamic search.
Parallel mode: deterministic, using up to 16 threads.
Root relaxation solution time = 1.30 sec. (822.82 ticks)

        Nodes                                         Cuts/
   Node  Left     Objective  IInf  Best Integer    Best Bound    ItCnt     Gap

*     0+    0                       229650.9905   -10486.5699           104.57%
      0     0     5134.1183     1   229650.9905     5134.1183       70   97.76%
*     0+    0                         6738.7943     5134.1183            23.81%
*     0+    0                         5740.4811     5134.1183            10.56%
      0     0        cutoff           5740.4811                    244    0.00%
Elapsed time = 1.94 sec. (1487.99 ticks, tree = 0.01 MB, solutions = 3)

Root node processing (before b&c):
  Real time             =    1.95 sec. (1490.77 ticks)
Parallel b&c, 16 threads:
  Real time             =    0.00 sec. (0.00 ticks)
  Sync time (average)   =    0.00 sec.
  Wait time (average)   =    0.00 sec.
                          ------------
Total (root+branch&cut) =    1.95 sec. (1490.77 ticks)

Solution pool: 3 solutions saved.

MIP - Integer optimal solution:  Objective =  5.7404810564e+03
Solution time =    1.95 sec.  Iterations = 244  Nodes = 0
Deterministic time = 1490.93 ticks  (763.40 ticks/sec)

CPLEX> Incumbent solution written to file 'C:\Users\wangy\Documents\GitHub\re_optimization\result_site_specific\tmp1ce89ntq.cplex.sol'.
CPLEX> 
